<?xml version="1.0" encoding="UTF-8"?><osil xmlns="os.optimizationservices.org" xmlns:xsi="http://www.w3.org/2001/XMLSchema-instance" xsi:schemaLocation="os.optimizationservices.org http://www.optimizationservices.org/schemas/2.0/OSiL.xsd"><instanceHeader><name>ex8_4_7</name></instanceHeader><instanceData><variables numberOfVariables="62"><var name="x1" lb=".9571" ub="1.0171"/><var name="x2" lb=".8606" ub=".9206"/><var name="x3" lb="8.57e-2" ub=".1457"/><var name="x4" lb="544.47" ub="550.47"/><var name="x5" lb="660.48" ub="666.48"/><var name="x6" lb=".9703" ub="1.0303"/><var name="x7" lb=".805" ub=".865"/><var name="x8" lb=".108" ub=".168"/><var name="x9" lb="528.77" ub="534.77"/><var name="x10" lb="673.04" ub="679.04"/><var name="x11" lb=".9739" ub="1.0339"/><var name="x12" lb=".7955" ub=".8555"/><var name="x13" lb=".155" ub=".215"/><var name="x14" lb="509.21" ub="515.21"/><var name="x15" lb="681.81" ub="687.81"/><var name="x16" lb=".946" ub="1.006"/><var name="x17" lb=".772" ub=".832"/><var name="x18" lb=".1705" ub=".2305"/><var name="x19" lb="487.59" ub="493.59"/><var name="x20" lb="692.47" ub="698.47"/><var name="x21" lb=".9829" ub="1.0429"/><var name="x22" lb=".722" ub=".782"/><var name="x23" lb=".212" ub=".272"/><var name="x24" lb="461.67" ub="467.67"/><var name="x25" lb="700.69" ub="706.69"/><var name="x26" lb=".9783" ub="1.0383"/><var name="x27" lb=".6893" ub=".7493"/><var name="x28" lb=".2439" ub=".3039"/><var name="x29" lb="435.47" ub="441.47"/><var name="x30" lb="711.9" ub="717.9"/><var name="x31" lb=".9775" ub="1.0375"/><var name="x32" lb=".6561" ub=".7161"/><var name="x33" lb=".2915" ub=".3515"/><var name="x34" lb="405.04" ub="411.04"/><var name="x35" lb="723.09" ub="729.09"/><var name="x36" lb=".9694" ub="1.0294"/><var name="x37" lb=".6088" ub=".6688"/><var name="x38" lb=".3441" ub=".4041"/><var name="x39" lb="372.56" ub="378.56"/><var name="x40" lb="732.44" ub="738.44"/><var name="x41" lb=".9707" ub="1.0307"/><var name="x42" lb=".567" ub=".627"/><var name="x43" lb=".3626" ub=".4226"/><var name="x44" lb="337.26" ub="343.26"/><var name="x45" lb="742.7" ub="748.7"/><var name="x46" lb=".9673" ub="1.0273"/><var name="x47" lb=".528" ub=".588"/><var name="x48" lb=".4403" ub=".5003"/><var name="x49" lb="303.55" ub="309.55"/><var name="x50" lb="750.94" ub="756.94"/><var name="x51" lb="1e-4" ub=".1"/><var name="x52" lb="5" ub="15"/><var name="x53" lb="-INF"/><var name="x54" lb="-INF"/><var name="x55" lb="-INF"/><var name="x56" lb="-INF"/><var name="x57" lb="-INF"/><var name="x58" lb="-INF"/><var name="x59" lb="-INF"/><var name="x60" lb="-INF"/><var name="x61" lb="-INF"/><var name="x62" lb="-INF"/></variables><objectives><obj maxOrMin="min" constant="7222634.0516" name="defObj_objvar" numberOfObjCoef="50"><coef idx="0">-19742</coef><coef idx="1">-17812</coef><coef idx="2">-2314</coef><coef idx="3">-1094.94</coef><coef idx="4">-1326.96</coef><coef idx="5">-20006</coef><coef idx="6">-1.67e4</coef><coef idx="7">-2.76e3</coef><coef idx="8">-1063.54</coef><coef idx="9">-1352.08</coef><coef idx="10">-20078</coef><coef idx="11">-1.651e4</coef><coef idx="12">-3.7e3</coef><coef idx="13">-1024.42</coef><coef idx="14">-1369.62</coef><coef idx="15">-1.952e4</coef><coef idx="16">-1.604e4</coef><coef idx="17">-4.01e3</coef><coef idx="18">-981.18</coef><coef idx="19">-1390.94</coef><coef idx="20">-20258</coef><coef idx="21">-1.504e4</coef><coef idx="22">-4.84e3</coef><coef idx="23">-929.34</coef><coef idx="24">-1407.38</coef><coef idx="25">-20166</coef><coef idx="26">-14386.000000000002</coef><coef idx="27">-5478</coef><coef idx="28">-876.94</coef><coef idx="29">-1429.8</coef><coef idx="30">-2.015e4</coef><coef idx="31">-13722</coef><coef idx="32">-6.43e3</coef><coef idx="33">-816.08</coef><coef idx="34">-1452.18</coef><coef idx="35">-19988</coef><coef idx="36">-12776</coef><coef idx="37">-7481.999999999999</coef><coef idx="38">-751.12</coef><coef idx="39">-1470.88</coef><coef idx="40">-20014</coef><coef idx="41">-1.194e4</coef><coef idx="42">-7852</coef><coef idx="43">-680.52</coef><coef idx="44">-1491.4</coef><coef idx="45">-19946</coef><coef idx="46">-1.116e4</coef><coef idx="47">-9406</coef><coef idx="48">-613.1</coef><coef idx="49">-1507.88</coef></obj></objectives><constraints numberOfConstraints="40"><con name="e2" lb="0" ub="0"/><con name="e3" lb="0" ub="0"/><con name="e4" lb="0" ub="0"/><con name="e5" lb="0" ub="0"/><con name="e6" lb="0" ub="0"/><con name="e7" lb="0" ub="0"/><con name="e8" lb="0" ub="0"/><con name="e9" lb="0" ub="0"/><con name="e10" lb="0" ub="0"/><con name="e11" lb="0" ub="0"/><con name="e12" lb="0" ub="0"/><con name="e13" lb="0" ub="0"/><con name="e14" lb="0" ub="0"/><con name="e15" lb="0" ub="0"/><con name="e16" lb="0" ub="0"/><con name="e17" lb="0" ub="0"/><con name="e18" lb="0" ub="0"/><con name="e19" lb="0" ub="0"/><con name="e20" lb="0" ub="0"/><con name="e21" lb="0" ub="0"/><con name="e22" lb="0" ub="0"/><con name="e23" lb="0" ub="0"/><con name="e24" lb="0" ub="0"/><con name="e25" lb="0" ub="0"/><con name="e26" lb="0" ub="0"/><con name="e27" lb="0" ub="0"/><con name="e28" lb="0" ub="0"/><con name="e29" lb="0" ub="0"/><con name="e30" lb="0" ub="0"/><con name="e31" lb="0" ub="0"/><con name="e32" lb="0" ub="0"/><con name="e33" lb="0" ub="0"/><con name="e34" lb="0" ub="0"/><con name="e35" lb="0" ub="0"/><con name="e36" lb="0" ub="0"/><con name="e37" lb="0" ub="0"/><con name="e38" lb="0" ub="0"/><con name="e39" lb="0" ub="0"/><con name="e40" lb="0" ub="0"/><con name="e41" lb="0" ub="0"/></constraints><linearConstraintCoefficients numberOfValues="60"><start><el mult="11" incr="2">0</el><el mult="10" incr="1">21</el><el mult="10" incr="2">32</el><el mult="10" incr="1">51</el></start><colIdx><el>0</el><el>1</el><el>5</el><el>6</el><el>10</el><el>11</el><el>15</el><el>16</el><el>20</el><el>21</el><el>25</el><el>26</el><el>30</el><el>31</el><el>35</el><el>36</el><el>40</el><el>41</el><el>45</el><el>46</el><el mult="10" incr="5">2</el><el>3</el><el>4</el><el>8</el><el>9</el><el>13</el><el>14</el><el>18</el><el>19</el><el>23</el><el>24</el><el>28</el><el>29</el><el>33</el><el>34</el><el>38</el><el>39</el><el>43</el><el>44</el><el>48</el><el>49</el><el mult="10" incr="1">52</el></colIdx><value><el>1e-2</el><el>-1e-2</el><el>1e-2</el><el>-1e-2</el><el>1e-2</el><el>-1e-2</el><el>1e-2</el><el>-1e-2</el><el>1e-2</el><el>-1e-2</el><el>1e-2</el><el>-1e-2</el><el>1e-2</el><el>-1e-2</el><el>1e-2</el><el>-1e-2</el><el>1e-2</el><el>-1e-2</el><el>1e-2</el><el mult="11">-1e-2</el><el>1e-2</el><el>-1e-2</el><el>1e-2</el><el>-1e-2</el><el>1e-2</el><el>-1e-2</el><el>1e-2</el><el>-1e-2</el><el>1e-2</el><el>-1e-2</el><el>1e-2</el><el>-1e-2</el><el>1e-2</el><el>-1e-2</el><el>1e-2</el><el>-1e-2</el><el>1e-2</el><el>-1e-2</el><el>1e-2</el><el>-1e-2</el><el mult="10">-1</el></value></linearConstraintCoefficients><quadraticCoefficients numberOfQuadraticTerms="80"><qTerm idx="-1" idxOne="0" idxTwo="0" coef="1e4"/><qTerm idx="-1" idxOne="1" idxTwo="1" coef="1e4"/><qTerm idx="-1" idxOne="2" idxTwo="2" coef="1e4"/><qTerm idx="-1" idxOne="3" idxTwo="3" coef="1"/><qTerm idx="-1" idxOne="4" idxTwo="4" coef="1"/><qTerm idx="-1" idxOne="5" idxTwo="5" coef="1e4"/><qTerm idx="-1" idxOne="6" idxTwo="6" coef="1e4"/><qTerm idx="-1" idxOne="7" idxTwo="7" coef="1e4"/><qTerm idx="-1" idxOne="8" idxTwo="8" coef="1"/><qTerm idx="-1" idxOne="9" idxTwo="9" coef="1"/><qTerm idx="-1" idxOne="10" idxTwo="10" coef="1e4"/><qTerm idx="-1" idxOne="11" idxTwo="11" coef="1e4"/><qTerm idx="-1" idxOne="12" idxTwo="12" coef="1e4"/><qTerm idx="-1" idxOne="13" idxTwo="13" coef="1"/><qTerm idx="-1" idxOne="14" idxTwo="14" coef="1"/><qTerm idx="-1" idxOne="15" idxTwo="15" coef="1e4"/><qTerm idx="-1" idxOne="16" idxTwo="16" coef="1e4"/><qTerm idx="-1" idxOne="17" idxTwo="17" coef="1e4"/><qTerm idx="-1" idxOne="18" idxTwo="18" coef="1"/><qTerm idx="-1" idxOne="19" idxTwo="19" coef="1"/><qTerm idx="-1" idxOne="20" idxTwo="20" coef="1e4"/><qTerm idx="-1" idxOne="21" idxTwo="21" coef="1e4"/><qTerm idx="-1" idxOne="22" idxTwo="22" coef="1e4"/><qTerm idx="-1" idxOne="23" idxTwo="23" coef="1"/><qTerm idx="-1" idxOne="24" idxTwo="24" coef="1"/><qTerm idx="-1" idxOne="25" idxTwo="25" coef="1e4"/><qTerm idx="-1" idxOne="26" idxTwo="26" coef="1e4"/><qTerm idx="-1" idxOne="27" idxTwo="27" coef="1e4"/><qTerm idx="-1" idxOne="28" idxTwo="28" coef="1"/><qTerm idx="-1" idxOne="29" idxTwo="29" coef="1"/><qTerm idx="-1" idxOne="30" idxTwo="30" coef="1e4"/><qTerm idx="-1" idxOne="31" idxTwo="31" coef="1e4"/><qTerm idx="-1" idxOne="32" idxTwo="32" coef="1e4"/><qTerm idx="-1" idxOne="33" idxTwo="33" coef="1"/><qTerm idx="-1" idxOne="34" idxTwo="34" coef="1"/><qTerm idx="-1" idxOne="35" idxTwo="35" coef="1e4"/><qTerm idx="-1" idxOne="36" idxTwo="36" coef="1e4"/><qTerm idx="-1" idxOne="37" idxTwo="37" coef="1e4"/><qTerm idx="-1" idxOne="38" idxTwo="38" coef="1"/><qTerm idx="-1" idxOne="39" idxTwo="39" coef="1"/><qTerm idx="-1" idxOne="40" idxTwo="40" coef="1e4"/><qTerm idx="-1" idxOne="41" idxTwo="41" coef="1e4"/><qTerm idx="-1" idxOne="42" idxTwo="42" coef="1e4"/><qTerm idx="-1" idxOne="43" idxTwo="43" coef="1"/><qTerm idx="-1" idxOne="44" idxTwo="44" coef="1"/><qTerm idx="-1" idxOne="45" idxTwo="45" coef="1e4"/><qTerm idx="-1" idxOne="46" idxTwo="46" coef="1e4"/><qTerm idx="-1" idxOne="47" idxTwo="47" coef="1e4"/><qTerm idx="-1" idxOne="48" idxTwo="48" coef="1"/><qTerm idx="-1" idxOne="49" idxTwo="49" coef="1"/><qTerm idx="0" idxOne="1" idxTwo="52" coef="-1"/><qTerm idx="1" idxOne="6" idxTwo="53" coef="-1"/><qTerm idx="2" idxOne="11" idxTwo="54" coef="-1"/><qTerm idx="3" idxOne="16" idxTwo="55" coef="-1"/><qTerm idx="4" idxOne="21" idxTwo="56" coef="-1"/><qTerm idx="5" idxOne="26" idxTwo="57" coef="-1"/><qTerm idx="6" idxOne="31" idxTwo="58" coef="-1"/><qTerm idx="7" idxOne="36" idxTwo="59" coef="-1"/><qTerm idx="8" idxOne="41" idxTwo="60" coef="-1"/><qTerm idx="9" idxOne="46" idxTwo="61" coef="-1"/><qTerm idx="10" idxOne="1" idxTwo="52" coef="1"/><qTerm idx="11" idxOne="6" idxTwo="53" coef="1"/><qTerm idx="12" idxOne="11" idxTwo="54" coef="1"/><qTerm idx="13" idxOne="16" idxTwo="55" coef="1"/><qTerm idx="14" idxOne="21" idxTwo="56" coef="1"/><qTerm idx="15" idxOne="26" idxTwo="57" coef="1"/><qTerm idx="16" idxOne="31" idxTwo="58" coef="1"/><qTerm idx="17" idxOne="36" idxTwo="59" coef="1"/><qTerm idx="18" idxOne="41" idxTwo="60" coef="1"/><qTerm idx="19" idxOne="46" idxTwo="61" coef="1"/><qTerm idx="20" idxOne="1" idxTwo="52" coef="1e3"/><qTerm idx="21" idxOne="6" idxTwo="53" coef="1e3"/><qTerm idx="22" idxOne="11" idxTwo="54" coef="1e3"/><qTerm idx="23" idxOne="16" idxTwo="55" coef="1e3"/><qTerm idx="24" idxOne="21" idxTwo="56" coef="1e3"/><qTerm idx="25" idxOne="26" idxTwo="57" coef="1e3"/><qTerm idx="26" idxOne="31" idxTwo="58" coef="1e3"/><qTerm idx="27" idxOne="36" idxTwo="59" coef="1e3"/><qTerm idx="28" idxOne="41" idxTwo="60" coef="1e3"/><qTerm idx="29" idxOne="46" idxTwo="61" coef="1e3"/></quadraticCoefficients><nonlinearExpressions numberOfNonlinearExpressions="10"><nl idx="30"><product><exp><product><sum><divide><number value="800"/><variable idx="4"/></divide><number value="-1"/></sum><variable idx="51" coef="-1"/></product></exp><variable idx="50"/></product></nl><nl idx="31"><product><exp><product><sum><divide><number value="800"/><variable idx="9"/></divide><number value="-1"/></sum><variable idx="51" coef="-1"/></product></exp><variable idx="50"/></product></nl><nl idx="32"><product><exp><product><sum><divide><number value="800"/><variable idx="14"/></divide><number value="-1"/></sum><variable idx="51" coef="-1"/></product></exp><variable idx="50"/></product></nl><nl idx="33"><product><exp><product><sum><divide><number value="800"/><variable idx="19"/></divide><number value="-1"/></sum><variable idx="51" coef="-1"/></product></exp><variable idx="50"/></product></nl><nl idx="34"><product><exp><product><sum><divide><number value="800"/><variable idx="24"/></divide><number value="-1"/></sum><variable idx="51" coef="-1"/></product></exp><variable idx="50"/></product></nl><nl idx="35"><product><exp><product><sum><divide><number value="800"/><variable idx="29"/></divide><number value="-1"/></sum><variable idx="51" coef="-1"/></product></exp><variable idx="50"/></product></nl><nl idx="36"><product><exp><product><sum><divide><number value="800"/><variable idx="34"/></divide><number value="-1"/></sum><variable idx="51" coef="-1"/></product></exp><variable idx="50"/></product></nl><nl idx="37"><product><exp><product><sum><divide><number value="800"/><variable idx="39"/></divide><number value="-1"/></sum><variable idx="51" coef="-1"/></product></exp><variable idx="50"/></product></nl><nl idx="38"><product><exp><product><sum><divide><number value="800"/><variable idx="44"/></divide><number value="-1"/></sum><variable idx="51" coef="-1"/></product></exp><variable idx="50"/></product></nl><nl idx="39"><product><exp><product><sum><divide><number value="800"/><variable idx="49"/></divide><number value="-1"/></sum><variable idx="51" coef="-1"/></product></exp><variable idx="50"/></product></nl></nonlinearExpressions></instanceData></osil>